\ENCODING=ISO-8859-1
\Problem name: LP/crossvalidation_paper/er_n=103_m=512_p=0.10_SET2_setparam=100.00_alpha=0.75_8

Maximize
 obj1: 100 x0 + 100 x1 + 100 x2 + 100 x3 + 100 x4 + 100 x5 + 100 x6 + 100 x7
       + 100 x8 + 100 x9 + 100 x10 + 100 x11 + 100 x12 + 100 x13 + 100 x14
       + 100 x15 + 100 x16 + 100 x17 + 100 x18 + 100 x19 + 100 x20 + 100 x21
       + 100 x22 + 100 x23 + 100 x24 + 100 x25 + 100 x26 + 100 x27 + 100 x28
       + 100 x29 + 100 x30 + 100 x31 + 100 x32 + 100 x33 + 100 x34 + 100 x35
       + 100 x36 + 100 x37 + 100 x38 + 100 x39 + 100 x40 + 100 x41 + 100 x42
       + 100 x43 + 100 x44 + 100 x45 + 100 x46 + 100 x47 + 100 x48 + 100 x49
       + 100 x50 + 100 x51 + 100 x52 + 100 x53 + 100 x54 + 100 x55 + 100 x56
       + 100 x57 + 100 x58 + 100 x59 + 100 x60 + 100 x61 + 100 x62 + 100 x63
       + 100 x64 + 100 x65 + 100 x66 + 100 x67 + 100 x68 + 100 x69 + 100 x70
       + 100 x71 + 100 x72 + 100 x73 + 100 x74 + 100 x75 + 100 x76 + 100 x77
       + 100 x78 + 100 x79 + 100 x80 + 100 x81 + 100 x82 + 100 x83 + 100 x84
       + 100 x85 + 100 x86 + 100 x87 + 100 x88 + 100 x89 + 100 x90 + 100 x91
       + 100 x92 + 100 x93 + 100 x94 + 100 x95 + 100 x96 + 100 x97 + 100 x98
       + 100 x99 + 100 x100 + 100 x101 + 100 x102 - y35_88 - y61_82 - y82_101
       - y33_41 - y7_55 - y14_31 - y65_78 - y0_17 - y13_20 - y33_95 - y1_54
       - y60_81 - y58_65 - y21_59 - y52_63 - y56_58 - y12_69 - y82_92 - y15_83
       - y32_35 - y17_39 - y63_83 - y9_19 - y77_95 - y47_90 - y19_70 - y16_97
       - y87_96 - y0_36 - y91_101 - y23_50 - y7_15 - y39_82 - y51_88 - y48_90
       - y43_45 - y44_46 - y77_88 - y42_74 - y47_99 - y17_84 - y49_52 - y0_5
       - y32_101 - y4_11 - y0_59 - y3_22 - y71_90 - y21_55 - y24_87 - y52_81
       - y12_32 - y10_48 - y65_81 - y5_79 - y39_54 - y8_76 - y58_90 - y2_30
       - y33_68 - y10_78 - y25_46 - y57_78 - y45_83 - y98_100 - y25_80 - y81_83
       - y24_68 - y30_49 - y0_100 - y38_46 - y17_70 - y20_85 - y16_86 - y2_25
       - y33_93 - y59_99 - y51_62 - y32_79 - y3_48 - y73_89 - y13_87 - y63_93
       - y6_65 - y90_93 - y54_97 - y17_81 - y28_101 - y46_80 - y85_94 - y32_70
       - y14_90 - y71_95 - y9_68 - y23_76 - y0_92 - y11_74 - y25_68 - y39_76
       - y52_84 - y8_53 - y7_39 - y41_51 - y14_17 - y30_84 - y46_91 - y92_102
       - y9_77 - y69_100 - y2_63 - y14_71 - y27_45 - y81_88 - y82_102 - y52_83
       - y13_73 - y31_35 - y75_77 - y49_73 - y37_38 - y78_83 - y3_85 - y12_56
       - y11_21 - y25_44 - y58_66 - y86_100 - y43_97 - y14_78 - y4_32 - y34_48
       - y8_9 - y42_58 - y20_87 - y45_57 - y56_79 - y7_94 - y83_89 - y18_82
       - y21_71 - y52_59 - y1_44 - y58_60 - y24_77 - y51_87 - y52_79 - y15_69
       - y29_91 - y40_77 - y90_91 - y9_23 - y40_83 - y21_102 - y39_60 - y35_100
       - y46_86 - y58_84 - y46_56 - y48_98 - y21_42 - y11_76 - y12_86 - y22_27
       - y74_76 - y65_92 - y11_56 - y0_25 - y14_57 - y69_88 - y66_74 - y24_44
       - y3_32 - y8_62 - y54_95 - y10_60 - y6_75 - y53_65 - y31_81 - y44_63
       - y21_82 - y65_97 - y51_61 - y25_50 - y8_86 - y39_102 - y26_41 - y22_51
       - y70_89 - y71_101 - y1_41 - y48_76 - y27_90 - y34_40 - y8_17 - y31_94
       - y5_94 - y6_100 - y55_68 - y16_74 - y33_81 - y14_45 - y68_90 - y94_100
       - y24_32 - y71_98 - y25_93 - y57_61 - y72_99 - y32_57 - y62_87 - y4_55
       - y52_73 - y17_25 - y14_99 - y35_58 - y75_83 - y40_79 - y30_79 - y19_102
       - y16_65 - y33_76 - y21_40 - y28_53 - y34_64 - y0_80 - y11_78 - y12_80
       - y27_40 - y24_86 - y61_88 - y17_18 - y18_25 - y23_28 - y28_66 - y14_21
       - y38_54 - y14_63 - y16_94 - y34_97 - y85_99 - y33_69 - y10_65 - y8_81
       - y45_84 - y15_85 - y17_45 - y41_56 - y28_89 - y30_67 - y65_77 - y7_71
       - y13_19 - y42_99 - y60_72 - y36_76 - y6_64 - y3_94 - y9_18 - y43_68
       - y44_78 - y0_15 - y23_87 - y4_13 - y80_86 - y44_100 - y33_73 - y61_99
       - y71_92 - y9_69 - y27_63 - y57_67 - y0_91 - y25_69 - y9_49 - y6_59
       - y44_69 - y27_30 - y1_7 - y34_100 - y33_51 - y19_87 - y16_80 - y8_77
       - y13_24 - y34_89 - y32_73 - y6_19 - y16_34 - y72_95 - y30_54 - y36_45
       - y55_97 - y62_100 - y18_85 - y1_11 - y39_98 - y80_81 - y53_59 - y60_74
       - y6_10 - y45_101 - y34_74 - y48_64 - y36_84 - y16_63 - y17_62 - y37_51
       - y76_82 - y33_85 - y47_77 - y15_52 - y67_96 - y14_91 - y61_97 - y25_75
       - y11_35 - y35_62 - y72_83 - y65_93 - y20_100 - y10_30 - y44_71 - y46_88
       - y12_24 - y18_71 - y69_99 - y52_54 - y15_72 - y48_84 - y40_58 - y17_40
       - y41_59 - y43_61 - y19_89 - y44_62 - y8_79 - y13_22 - y46_69 - y11_101
       - y60_87 - y57_83 - y15_32 - y14_79 - y70_88 - y98_99 - y9_95 - y4_33
       - y34_49 - y0_65 - y88_91 - y10_38 - y52_65 - y31_49 - y28_85 - y78_91
       - y9_11 - y36_53 - y20_80 - y41_87 - y46_76 - y19_42 - y84_100 - y21_32
       - y36_86 - y51_86 - y7_43 - y29_90 - y79_80 - y16_49 - y40_78 - y53_84
       - y64_84 - y44_74 - y3_14 - y58_85 - y19_51 - y85_91 - y48_99 - y2_35
       - y72_79 - y15_77 - y65_83 - y27_101 - y11_17 - y57_102 - y89_97
       - y25_40 - y86_96
Subject To
 c1:   x0 + x5 - y0_5 <= 1
 c2:   x0 + x15 - y0_15 <= 1
 c3:   x0 + x17 - y0_17 <= 1
 c4:   x0 + x25 - y0_25 <= 1
 c5:   x0 + x36 - y0_36 <= 1
 c6:   x0 + x49 <= 1
 c7:   x0 + x59 - y0_59 <= 1
 c8:   x0 + x65 - y0_65 <= 1
 c9:   x0 + x80 - y0_80 <= 1
 c10:  x0 + x91 - y0_91 <= 1
 c11:  x0 + x92 - y0_92 <= 1
 c12:  x0 + x100 - y0_100 <= 1
 c13:  x0 + x101 <= 1
 c14:  x1 + x7 - y1_7 <= 1
 c15:  x1 + x11 - y1_11 <= 1
 c16:  x1 + x19 <= 1
 c17:  x1 + x41 - y1_41 <= 1
 c18:  x1 + x44 - y1_44 <= 1
 c19:  x1 + x54 - y1_54 <= 1
 c20:  x1 + x92 <= 1
 c21:  x2 + x25 - y2_25 <= 1
 c22:  x2 + x30 - y2_30 <= 1
 c23:  x2 + x35 - y2_35 <= 1
 c24:  x2 + x57 <= 1
 c25:  x2 + x63 - y2_63 <= 1
 c26:  x2 + x81 <= 1
 c27:  x3 + x14 - y3_14 <= 1
 c28:  x3 + x22 - y3_22 <= 1
 c29:  x3 + x32 - y3_32 <= 1
 c30:  x3 + x48 - y3_48 <= 1
 c31:  x3 + x53 <= 1
 c32:  x3 + x85 - y3_85 <= 1
 c33:  x3 + x94 - y3_94 <= 1
 c34:  x4 + x5 <= 1
 c35:  x4 + x11 - y4_11 <= 1
 c36:  x4 + x13 - y4_13 <= 1
 c37:  x4 + x32 - y4_32 <= 1
 c38:  x4 + x33 - y4_33 <= 1
 c39:  x4 + x55 - y4_55 <= 1
 c40:  x5 + x15 <= 1
 c41:  x5 + x79 - y5_79 <= 1
 c42:  x5 + x94 - y5_94 <= 1
 c43:  x6 + x10 - y6_10 <= 1
 c44:  x6 + x19 - y6_19 <= 1
 c45:  x6 + x42 <= 1
 c46:  x6 + x59 - y6_59 <= 1
 c47:  x6 + x64 - y6_64 <= 1
 c48:  x6 + x65 - y6_65 <= 1
 c49:  x6 + x75 - y6_75 <= 1
 c50:  x6 + x100 - y6_100 <= 1
 c51:  x7 + x15 - y7_15 <= 1
 c52:  x7 + x39 - y7_39 <= 1
 c53:  x7 + x43 - y7_43 <= 1
 c54:  x7 + x55 - y7_55 <= 1
 c55:  x7 + x71 - y7_71 <= 1
 c56:  x7 + x94 - y7_94 <= 1
 c57:  x8 + x9 - y8_9 <= 1
 c58:  x8 + x17 - y8_17 <= 1
 c59:  x8 + x19 <= 1
 c60:  x8 + x29 <= 1
 c61:  x8 + x41 <= 1
 c62:  x8 + x53 - y8_53 <= 1
 c63:  x8 + x62 - y8_62 <= 1
 c64:  x8 + x69 <= 1
 c65:  x8 + x76 - y8_76 <= 1
 c66:  x8 + x77 - y8_77 <= 1
 c67:  x8 + x79 - y8_79 <= 1
 c68:  x8 + x81 - y8_81 <= 1
 c69:  x8 + x86 - y8_86 <= 1
 c70:  x9 + x11 - y9_11 <= 1
 c71:  x9 + x18 - y9_18 <= 1
 c72:  x9 + x19 - y9_19 <= 1
 c73:  x9 + x23 - y9_23 <= 1
 c74:  x9 + x24 <= 1
 c75:  x9 + x29 <= 1
 c76:  x9 + x49 - y9_49 <= 1
 c77:  x9 + x60 <= 1
 c78:  x9 + x68 - y9_68 <= 1
 c79:  x9 + x69 - y9_69 <= 1
 c80:  x9 + x76 <= 1
 c81:  x9 + x77 - y9_77 <= 1
 c82:  x9 + x90 <= 1
 c83:  x9 + x95 - y9_95 <= 1
 c84:  x10 + x25 <= 1
 c85:  x10 + x30 - y10_30 <= 1
 c86:  x10 + x38 - y10_38 <= 1
 c87:  x10 + x48 - y10_48 <= 1
 c88:  x10 + x60 - y10_60 <= 1
 c89:  x10 + x65 - y10_65 <= 1
 c90:  x10 + x78 - y10_78 <= 1
 c91:  x11 + x17 - y11_17 <= 1
 c92:  x11 + x21 - y11_21 <= 1
 c93:  x11 + x25 <= 1
 c94:  x11 + x35 - y11_35 <= 1
 c95:  x11 + x56 - y11_56 <= 1
 c96:  x11 + x60 <= 1
 c97:  x11 + x74 - y11_74 <= 1
 c98:  x11 + x76 - y11_76 <= 1
 c99:  x11 + x78 - y11_78 <= 1
 c100: x11 + x101 - y11_101 <= 1
 c101: x12 + x13 <= 1
 c102: x12 + x24 - y12_24 <= 1
 c103: x12 + x32 - y12_32 <= 1
 c104: x12 + x56 - y12_56 <= 1
 c105: x12 + x69 - y12_69 <= 1
 c106: x12 + x80 - y12_80 <= 1
 c107: x12 + x86 - y12_86 <= 1
 c108: x13 + x19 - y13_19 <= 1
 c109: x13 + x20 - y13_20 <= 1
 c110: x13 + x22 - y13_22 <= 1
 c111: x13 + x24 - y13_24 <= 1
 c112: x13 + x27 <= 1
 c113: x13 + x49 <= 1
 c114: x13 + x55 <= 1
 c115: x13 + x71 <= 1
 c116: x13 + x73 - y13_73 <= 1
 c117: x13 + x87 - y13_87 <= 1
 c118: x14 + x17 - y14_17 <= 1
 c119: x14 + x21 - y14_21 <= 1
 c120: x14 + x31 - y14_31 <= 1
 c121: x14 + x45 - y14_45 <= 1
 c122: x14 + x46 <= 1
 c123: x14 + x52 <= 1
 c124: x14 + x57 - y14_57 <= 1
 c125: x14 + x63 - y14_63 <= 1
 c126: x14 + x71 - y14_71 <= 1
 c127: x14 + x78 - y14_78 <= 1
 c128: x14 + x79 - y14_79 <= 1
 c129: x14 + x90 - y14_90 <= 1
 c130: x14 + x91 - y14_91 <= 1
 c131: x14 + x96 <= 1
 c132: x14 + x99 - y14_99 <= 1
 c133: x15 + x26 <= 1
 c134: x15 + x32 - y15_32 <= 1
 c135: x15 + x52 - y15_52 <= 1
 c136: x15 + x69 - y15_69 <= 1
 c137: x15 + x72 - y15_72 <= 1
 c138: x15 + x77 - y15_77 <= 1
 c139: x15 + x83 - y15_83 <= 1
 c140: x15 + x85 - y15_85 <= 1
 c141: x15 + x97 <= 1
 c142: x16 + x34 - y16_34 <= 1
 c143: x16 + x40 <= 1
 c144: x16 + x49 - y16_49 <= 1
 c145: x16 + x54 <= 1
 c146: x16 + x63 - y16_63 <= 1
 c147: x16 + x65 - y16_65 <= 1
 c148: x16 + x66 <= 1
 c149: x16 + x74 - y16_74 <= 1
 c150: x16 + x80 - y16_80 <= 1
 c151: x16 + x86 - y16_86 <= 1
 c152: x16 + x94 - y16_94 <= 1
 c153: x16 + x97 - y16_97 <= 1
 c154: x17 + x18 - y17_18 <= 1
 c155: x17 + x25 - y17_25 <= 1
 c156: x17 + x39 - y17_39 <= 1
 c157: x17 + x40 - y17_40 <= 1
 c158: x17 + x45 - y17_45 <= 1
 c159: x17 + x53 <= 1
 c160: x17 + x62 - y17_62 <= 1
 c161: x17 + x70 - y17_70 <= 1
 c162: x17 + x81 - y17_81 <= 1
 c163: x17 + x84 - y17_84 <= 1
 c164: x18 + x25 - y18_25 <= 1
 c165: x18 + x56 <= 1
 c166: x18 + x71 - y18_71 <= 1
 c167: x18 + x82 - y18_82 <= 1
 c168: x18 + x85 - y18_85 <= 1
 c169: x18 + x101 <= 1
 c170: x19 + x42 - y19_42 <= 1
 c171: x19 + x50 <= 1
 c172: x19 + x51 - y19_51 <= 1
 c173: x19 + x70 - y19_70 <= 1
 c174: x19 + x87 - y19_87 <= 1
 c175: x19 + x89 - y19_89 <= 1
 c176: x19 + x102 - y19_102 <= 1
 c177: x20 + x21 <= 1
 c178: x20 + x80 - y20_80 <= 1
 c179: x20 + x85 - y20_85 <= 1
 c180: x20 + x87 - y20_87 <= 1
 c181: x20 + x94 <= 1
 c182: x20 + x100 - y20_100 <= 1
 c183: x21 + x32 - y21_32 <= 1
 c184: x21 + x40 - y21_40 <= 1
 c185: x21 + x42 - y21_42 <= 1
 c186: x21 + x55 - y21_55 <= 1
 c187: x21 + x59 - y21_59 <= 1
 c188: x21 + x71 - y21_71 <= 1
 c189: x21 + x79 <= 1
 c190: x21 + x82 - y21_82 <= 1
 c191: x21 + x102 - y21_102 <= 1
 c192: x22 + x27 - y22_27 <= 1
 c193: x22 + x51 - y22_51 <= 1
 c194: x22 + x62 <= 1
 c195: x22 + x63 <= 1
 c196: x22 + x66 <= 1
 c197: x23 + x28 - y23_28 <= 1
 c198: x23 + x39 <= 1
 c199: x23 + x45 <= 1
 c200: x23 + x50 - y23_50 <= 1
 c201: x23 + x58 <= 1
 c202: x23 + x76 - y23_76 <= 1
 c203: x23 + x82 <= 1
 c204: x23 + x87 - y23_87 <= 1
 c205: x24 + x32 - y24_32 <= 1
 c206: x24 + x44 - y24_44 <= 1
 c207: x24 + x68 - y24_68 <= 1
 c208: x24 + x77 - y24_77 <= 1
 c209: x24 + x86 - y24_86 <= 1
 c210: x24 + x87 - y24_87 <= 1
 c211: x24 + x97 <= 1
 c212: x25 + x40 - y25_40 <= 1
 c213: x25 + x44 - y25_44 <= 1
 c214: x25 + x46 - y25_46 <= 1
 c215: x25 + x50 - y25_50 <= 1
 c216: x25 + x68 - y25_68 <= 1
 c217: x25 + x69 - y25_69 <= 1
 c218: x25 + x75 - y25_75 <= 1
 c219: x25 + x80 - y25_80 <= 1
 c220: x25 + x93 - y25_93 <= 1
 c221: x26 + x41 - y26_41 <= 1
 c222: x26 + x92 <= 1
 c223: x27 + x30 - y27_30 <= 1
 c224: x27 + x40 - y27_40 <= 1
 c225: x27 + x45 - y27_45 <= 1
 c226: x27 + x63 - y27_63 <= 1
 c227: x27 + x90 - y27_90 <= 1
 c228: x27 + x101 - y27_101 <= 1
 c229: x28 + x53 - y28_53 <= 1
 c230: x28 + x66 - y28_66 <= 1
 c231: x28 + x85 - y28_85 <= 1
 c232: x28 + x89 - y28_89 <= 1
 c233: x28 + x93 <= 1
 c234: x28 + x101 - y28_101 <= 1
 c235: x29 + x40 <= 1
 c236: x29 + x74 <= 1
 c237: x29 + x90 - y29_90 <= 1
 c238: x29 + x91 - y29_91 <= 1
 c239: x29 + x94 <= 1
 c240: x29 + x95 <= 1
 c241: x30 + x49 - y30_49 <= 1
 c242: x30 + x54 - y30_54 <= 1
 c243: x30 + x67 - y30_67 <= 1
 c244: x30 + x78 <= 1
 c245: x30 + x79 - y30_79 <= 1
 c246: x30 + x84 - y30_84 <= 1
 c247: x30 + x85 <= 1
 c248: x31 + x35 - y31_35 <= 1
 c249: x31 + x40 <= 1
 c250: x31 + x45 <= 1
 c251: x31 + x49 - y31_49 <= 1
 c252: x31 + x81 - y31_81 <= 1
 c253: x31 + x94 - y31_94 <= 1
 c254: x31 + x100 <= 1
 c255: x32 + x35 - y32_35 <= 1
 c256: x32 + x57 - y32_57 <= 1
 c257: x32 + x70 - y32_70 <= 1
 c258: x32 + x73 - y32_73 <= 1
 c259: x32 + x79 - y32_79 <= 1
 c260: x32 + x93 <= 1
 c261: x32 + x101 - y32_101 <= 1
 c262: x33 + x41 - y33_41 <= 1
 c263: x33 + x50 <= 1
 c264: x33 + x51 - y33_51 <= 1
 c265: x33 + x63 <= 1
 c266: x33 + x68 - y33_68 <= 1
 c267: x33 + x69 - y33_69 <= 1
 c268: x33 + x73 - y33_73 <= 1
 c269: x33 + x76 - y33_76 <= 1
 c270: x33 + x81 - y33_81 <= 1
 c271: x33 + x85 - y33_85 <= 1
 c272: x33 + x93 - y33_93 <= 1
 c273: x33 + x95 - y33_95 <= 1
 c274: x34 + x40 - y34_40 <= 1
 c275: x34 + x48 - y34_48 <= 1
 c276: x34 + x49 - y34_49 <= 1
 c277: x34 + x64 - y34_64 <= 1
 c278: x34 + x74 - y34_74 <= 1
 c279: x34 + x89 - y34_89 <= 1
 c280: x34 + x97 - y34_97 <= 1
 c281: x34 + x100 - y34_100 <= 1
 c282: x35 + x58 - y35_58 <= 1
 c283: x35 + x62 - y35_62 <= 1
 c284: x35 + x88 - y35_88 <= 1
 c285: x35 + x100 - y35_100 <= 1
 c286: x35 + x102 <= 1
 c287: x36 + x45 - y36_45 <= 1
 c288: x36 + x53 - y36_53 <= 1
 c289: x36 + x76 - y36_76 <= 1
 c290: x36 + x84 - y36_84 <= 1
 c291: x36 + x86 - y36_86 <= 1
 c292: x37 + x38 - y37_38 <= 1
 c293: x37 + x49 <= 1
 c294: x37 + x51 - y37_51 <= 1
 c295: x37 + x98 <= 1
 c296: x38 + x46 - y38_46 <= 1
 c297: x38 + x54 - y38_54 <= 1
 c298: x38 + x62 <= 1
 c299: x38 + x82 <= 1
 c300: x39 + x46 <= 1
 c301: x39 + x54 - y39_54 <= 1
 c302: x39 + x60 - y39_60 <= 1
 c303: x39 + x76 - y39_76 <= 1
 c304: x39 + x80 <= 1
 c305: x39 + x82 - y39_82 <= 1
 c306: x39 + x91 <= 1
 c307: x39 + x98 - y39_98 <= 1
 c308: x39 + x102 - y39_102 <= 1
 c309: x40 + x58 - y40_58 <= 1
 c310: x40 + x77 - y40_77 <= 1
 c311: x40 + x78 - y40_78 <= 1
 c312: x40 + x79 - y40_79 <= 1
 c313: x40 + x83 - y40_83 <= 1
 c314: x41 + x47 <= 1
 c315: x41 + x51 - y41_51 <= 1
 c316: x41 + x56 - y41_56 <= 1
 c317: x41 + x59 - y41_59 <= 1
 c318: x41 + x87 - y41_87 <= 1
 c319: x41 + x95 <= 1
 c320: x41 + x96 <= 1
 c321: x42 + x58 - y42_58 <= 1
 c322: x42 + x60 <= 1
 c323: x42 + x74 - y42_74 <= 1
 c324: x42 + x76 <= 1
 c325: x42 + x79 <= 1
 c326: x42 + x98 <= 1
 c327: x42 + x99 - y42_99 <= 1
 c328: x43 + x45 - y43_45 <= 1
 c329: x43 + x50 <= 1
 c330: x43 + x61 - y43_61 <= 1
 c331: x43 + x68 - y43_68 <= 1
 c332: x43 + x79 <= 1
 c333: x43 + x97 - y43_97 <= 1
 c334: x44 + x46 - y44_46 <= 1
 c335: x44 + x56 <= 1
 c336: x44 + x62 - y44_62 <= 1
 c337: x44 + x63 - y44_63 <= 1
 c338: x44 + x69 - y44_69 <= 1
 c339: x44 + x70 <= 1
 c340: x44 + x71 - y44_71 <= 1
 c341: x44 + x74 - y44_74 <= 1
 c342: x44 + x78 - y44_78 <= 1
 c343: x44 + x83 <= 1
 c344: x44 + x93 <= 1
 c345: x44 + x100 - y44_100 <= 1
 c346: x45 + x57 - y45_57 <= 1
 c347: x45 + x83 - y45_83 <= 1
 c348: x45 + x84 - y45_84 <= 1
 c349: x45 + x92 <= 1
 c350: x45 + x101 - y45_101 <= 1
 c351: x46 + x56 - y46_56 <= 1
 c352: x46 + x69 - y46_69 <= 1
 c353: x46 + x73 <= 1
 c354: x46 + x76 - y46_76 <= 1
 c355: x46 + x80 - y46_80 <= 1
 c356: x46 + x86 - y46_86 <= 1
 c357: x46 + x88 - y46_88 <= 1
 c358: x46 + x91 - y46_91 <= 1
 c359: x47 + x77 - y47_77 <= 1
 c360: x47 + x90 - y47_90 <= 1
 c361: x47 + x99 - y47_99 <= 1
 c362: x48 + x64 - y48_64 <= 1
 c363: x48 + x76 - y48_76 <= 1
 c364: x48 + x84 - y48_84 <= 1
 c365: x48 + x90 - y48_90 <= 1
 c366: x48 + x98 - y48_98 <= 1
 c367: x48 + x99 - y48_99 <= 1
 c368: x49 + x52 - y49_52 <= 1
 c369: x49 + x73 - y49_73 <= 1
 c370: x50 + x89 <= 1
 c371: x51 + x61 - y51_61 <= 1
 c372: x51 + x62 - y51_62 <= 1
 c373: x51 + x75 <= 1
 c374: x51 + x86 - y51_86 <= 1
 c375: x51 + x87 - y51_87 <= 1
 c376: x51 + x88 - y51_88 <= 1
 c377: x52 + x54 - y52_54 <= 1
 c378: x52 + x59 - y52_59 <= 1
 c379: x52 + x63 - y52_63 <= 1
 c380: x52 + x65 - y52_65 <= 1
 c381: x52 + x73 - y52_73 <= 1
 c382: x52 + x78 <= 1
 c383: x52 + x79 - y52_79 <= 1
 c384: x52 + x81 - y52_81 <= 1
 c385: x52 + x83 - y52_83 <= 1
 c386: x52 + x84 - y52_84 <= 1
 c387: x53 + x59 - y53_59 <= 1
 c388: x53 + x65 - y53_65 <= 1
 c389: x53 + x84 - y53_84 <= 1
 c390: x54 + x67 <= 1
 c391: x54 + x72 <= 1
 c392: x54 + x87 <= 1
 c393: x54 + x95 - y54_95 <= 1
 c394: x54 + x97 - y54_97 <= 1
 c395: x54 + x99 <= 1
 c396: x55 + x68 - y55_68 <= 1
 c397: x55 + x97 - y55_97 <= 1
 c398: x56 + x58 - y56_58 <= 1
 c399: x56 + x79 - y56_79 <= 1
 c400: x57 + x61 - y57_61 <= 1
 c401: x57 + x67 - y57_67 <= 1
 c402: x57 + x78 - y57_78 <= 1
 c403: x57 + x83 - y57_83 <= 1
 c404: x57 + x102 - y57_102 <= 1
 c405: x58 + x60 - y58_60 <= 1
 c406: x58 + x65 - y58_65 <= 1
 c407: x58 + x66 - y58_66 <= 1
 c408: x58 + x68 <= 1
 c409: x58 + x70 <= 1
 c410: x58 + x84 - y58_84 <= 1
 c411: x58 + x85 - y58_85 <= 1
 c412: x58 + x90 - y58_90 <= 1
 c413: x59 + x62 <= 1
 c414: x59 + x71 <= 1
 c415: x59 + x76 <= 1
 c416: x59 + x99 - y59_99 <= 1
 c417: x60 + x72 - y60_72 <= 1
 c418: x60 + x74 - y60_74 <= 1
 c419: x60 + x81 - y60_81 <= 1
 c420: x60 + x87 - y60_87 <= 1
 c421: x61 + x65 <= 1
 c422: x61 + x81 <= 1
 c423: x61 + x82 - y61_82 <= 1
 c424: x61 + x86 <= 1
 c425: x61 + x88 - y61_88 <= 1
 c426: x61 + x97 - y61_97 <= 1
 c427: x61 + x99 - y61_99 <= 1
 c428: x62 + x87 - y62_87 <= 1
 c429: x62 + x88 <= 1
 c430: x62 + x100 - y62_100 <= 1
 c431: x63 + x78 <= 1
 c432: x63 + x83 - y63_83 <= 1
 c433: x63 + x93 - y63_93 <= 1
 c434: x64 + x84 - y64_84 <= 1
 c435: x64 + x99 <= 1
 c436: x65 + x77 - y65_77 <= 1
 c437: x65 + x78 - y65_78 <= 1
 c438: x65 + x81 - y65_81 <= 1
 c439: x65 + x83 - y65_83 <= 1
 c440: x65 + x86 <= 1
 c441: x65 + x92 - y65_92 <= 1
 c442: x65 + x93 - y65_93 <= 1
 c443: x65 + x97 - y65_97 <= 1
 c444: x66 + x74 - y66_74 <= 1
 c445: x66 + x75 <= 1
 c446: x66 + x81 <= 1
 c447: x67 + x76 <= 1
 c448: x67 + x82 <= 1
 c449: x67 + x96 - y67_96 <= 1
 c450: x68 + x81 <= 1
 c451: x68 + x90 - y68_90 <= 1
 c452: x69 + x74 <= 1
 c453: x69 + x88 - y69_88 <= 1
 c454: x69 + x96 <= 1
 c455: x69 + x97 <= 1
 c456: x69 + x99 - y69_99 <= 1
 c457: x69 + x100 - y69_100 <= 1
 c458: x70 + x88 - y70_88 <= 1
 c459: x70 + x89 - y70_89 <= 1
 c460: x71 + x90 - y71_90 <= 1
 c461: x71 + x92 - y71_92 <= 1
 c462: x71 + x95 - y71_95 <= 1
 c463: x71 + x98 - y71_98 <= 1
 c464: x71 + x101 - y71_101 <= 1
 c465: x72 + x79 - y72_79 <= 1
 c466: x72 + x82 <= 1
 c467: x72 + x83 - y72_83 <= 1
 c468: x72 + x86 <= 1
 c469: x72 + x95 - y72_95 <= 1
 c470: x72 + x99 - y72_99 <= 1
 c471: x72 + x101 <= 1
 c472: x73 + x89 - y73_89 <= 1
 c473: x74 + x76 - y74_76 <= 1
 c474: x74 + x96 <= 1
 c475: x75 + x77 - y75_77 <= 1
 c476: x75 + x83 - y75_83 <= 1
 c477: x76 + x82 - y76_82 <= 1
 c478: x77 + x88 - y77_88 <= 1
 c479: x77 + x95 - y77_95 <= 1
 c480: x78 + x83 - y78_83 <= 1
 c481: x78 + x91 - y78_91 <= 1
 c482: x79 + x80 - y79_80 <= 1
 c483: x80 + x81 - y80_81 <= 1
 c484: x80 + x86 - y80_86 <= 1
 c485: x81 + x83 - y81_83 <= 1
 c486: x81 + x88 - y81_88 <= 1
 c487: x81 + x92 <= 1
 c488: x82 + x84 <= 1
 c489: x82 + x92 - y82_92 <= 1
 c490: x82 + x101 - y82_101 <= 1
 c491: x82 + x102 - y82_102 <= 1
 c492: x83 + x89 - y83_89 <= 1
 c493: x83 + x93 <= 1
 c494: x83 + x99 <= 1
 c495: x84 + x100 - y84_100 <= 1
 c496: x85 + x91 - y85_91 <= 1
 c497: x85 + x94 - y85_94 <= 1
 c498: x85 + x99 - y85_99 <= 1
 c499: x86 + x96 - y86_96 <= 1
 c500: x86 + x100 - y86_100 <= 1
 c501: x87 + x95 <= 1
 c502: x87 + x96 - y87_96 <= 1
 c503: x88 + x91 - y88_91 <= 1
 c504: x89 + x97 - y89_97 <= 1
 c505: x90 + x91 - y90_91 <= 1
 c506: x90 + x93 - y90_93 <= 1
 c507: x91 + x101 - y91_101 <= 1
 c508: x92 + x102 - y92_102 <= 1
 c509: x93 + x97 <= 1
 c510: x94 + x100 - y94_100 <= 1
 c511: x98 + x99 - y98_99 <= 1
 c512: x98 + x100 - y98_100 <= 1
Bounds
 0 <= x0 <= 1
 0 <= x1 <= 1
 0 <= x2 <= 1
 0 <= x3 <= 1
 0 <= x4 <= 1
 0 <= x5 <= 1
 0 <= x6 <= 1
 0 <= x7 <= 1
 0 <= x8 <= 1
 0 <= x9 <= 1
 0 <= x10 <= 1
 0 <= x11 <= 1
 0 <= x12 <= 1
 0 <= x13 <= 1
 0 <= x14 <= 1
 0 <= x15 <= 1
 0 <= x16 <= 1
 0 <= x17 <= 1
 0 <= x18 <= 1
 0 <= x19 <= 1
 0 <= x20 <= 1
 0 <= x21 <= 1
 0 <= x22 <= 1
 0 <= x23 <= 1
 0 <= x24 <= 1
 0 <= x25 <= 1
 0 <= x26 <= 1
 0 <= x27 <= 1
 0 <= x28 <= 1
 0 <= x29 <= 1
 0 <= x30 <= 1
 0 <= x31 <= 1
 0 <= x32 <= 1
 0 <= x33 <= 1
 0 <= x34 <= 1
 0 <= x35 <= 1
 0 <= x36 <= 1
 0 <= x37 <= 1
 0 <= x38 <= 1
 0 <= x39 <= 1
 0 <= x40 <= 1
 0 <= x41 <= 1
 0 <= x42 <= 1
 0 <= x43 <= 1
 0 <= x44 <= 1
 0 <= x45 <= 1
 0 <= x46 <= 1
 0 <= x47 <= 1
 0 <= x48 <= 1
 0 <= x49 <= 1
 0 <= x50 <= 1
 0 <= x51 <= 1
 0 <= x52 <= 1
 0 <= x53 <= 1
 0 <= x54 <= 1
 0 <= x55 <= 1
 0 <= x56 <= 1
 0 <= x57 <= 1
 0 <= x58 <= 1
 0 <= x59 <= 1
 0 <= x60 <= 1
 0 <= x61 <= 1
 0 <= x62 <= 1
 0 <= x63 <= 1
 0 <= x64 <= 1
 0 <= x65 <= 1
 0 <= x66 <= 1
 0 <= x67 <= 1
 0 <= x68 <= 1
 0 <= x69 <= 1
 0 <= x70 <= 1
 0 <= x71 <= 1
 0 <= x72 <= 1
 0 <= x73 <= 1
 0 <= x74 <= 1
 0 <= x75 <= 1
 0 <= x76 <= 1
 0 <= x77 <= 1
 0 <= x78 <= 1
 0 <= x79 <= 1
 0 <= x80 <= 1
 0 <= x81 <= 1
 0 <= x82 <= 1
 0 <= x83 <= 1
 0 <= x84 <= 1
 0 <= x85 <= 1
 0 <= x86 <= 1
 0 <= x87 <= 1
 0 <= x88 <= 1
 0 <= x89 <= 1
 0 <= x90 <= 1
 0 <= x91 <= 1
 0 <= x92 <= 1
 0 <= x93 <= 1
 0 <= x94 <= 1
 0 <= x95 <= 1
 0 <= x96 <= 1
 0 <= x97 <= 1
 0 <= x98 <= 1
 0 <= x99 <= 1
 0 <= x100 <= 1
 0 <= x101 <= 1
 0 <= x102 <= 1
 0 <= y35_88 <= 1
 0 <= y61_82 <= 1
 0 <= y82_101 <= 1
 0 <= y33_41 <= 1
 0 <= y7_55 <= 1
 0 <= y14_31 <= 1
 0 <= y65_78 <= 1
 0 <= y0_17 <= 1
 0 <= y13_20 <= 1
 0 <= y33_95 <= 1
 0 <= y1_54 <= 1
 0 <= y60_81 <= 1
 0 <= y58_65 <= 1
 0 <= y21_59 <= 1
 0 <= y52_63 <= 1
 0 <= y56_58 <= 1
 0 <= y12_69 <= 1
 0 <= y82_92 <= 1
 0 <= y15_83 <= 1
 0 <= y32_35 <= 1
 0 <= y17_39 <= 1
 0 <= y63_83 <= 1
 0 <= y9_19 <= 1
 0 <= y77_95 <= 1
 0 <= y47_90 <= 1
 0 <= y19_70 <= 1
 0 <= y16_97 <= 1
 0 <= y87_96 <= 1
 0 <= y0_36 <= 1
 0 <= y91_101 <= 1
 0 <= y23_50 <= 1
 0 <= y7_15 <= 1
 0 <= y39_82 <= 1
 0 <= y51_88 <= 1
 0 <= y48_90 <= 1
 0 <= y43_45 <= 1
 0 <= y44_46 <= 1
 0 <= y77_88 <= 1
 0 <= y42_74 <= 1
 0 <= y47_99 <= 1
 0 <= y17_84 <= 1
 0 <= y49_52 <= 1
 0 <= y0_5 <= 1
 0 <= y32_101 <= 1
 0 <= y4_11 <= 1
 0 <= y0_59 <= 1
 0 <= y3_22 <= 1
 0 <= y71_90 <= 1
 0 <= y21_55 <= 1
 0 <= y24_87 <= 1
 0 <= y52_81 <= 1
 0 <= y12_32 <= 1
 0 <= y10_48 <= 1
 0 <= y65_81 <= 1
 0 <= y5_79 <= 1
 0 <= y39_54 <= 1
 0 <= y8_76 <= 1
 0 <= y58_90 <= 1
 0 <= y2_30 <= 1
 0 <= y33_68 <= 1
 0 <= y10_78 <= 1
 0 <= y25_46 <= 1
 0 <= y57_78 <= 1
 0 <= y45_83 <= 1
 0 <= y98_100 <= 1
 0 <= y25_80 <= 1
 0 <= y81_83 <= 1
 0 <= y24_68 <= 1
 0 <= y30_49 <= 1
 0 <= y0_100 <= 1
 0 <= y38_46 <= 1
 0 <= y17_70 <= 1
 0 <= y20_85 <= 1
 0 <= y16_86 <= 1
 0 <= y2_25 <= 1
 0 <= y33_93 <= 1
 0 <= y59_99 <= 1
 0 <= y51_62 <= 1
 0 <= y32_79 <= 1
 0 <= y3_48 <= 1
 0 <= y73_89 <= 1
 0 <= y13_87 <= 1
 0 <= y63_93 <= 1
 0 <= y6_65 <= 1
 0 <= y90_93 <= 1
 0 <= y54_97 <= 1
 0 <= y17_81 <= 1
 0 <= y28_101 <= 1
 0 <= y46_80 <= 1
 0 <= y85_94 <= 1
 0 <= y32_70 <= 1
 0 <= y14_90 <= 1
 0 <= y71_95 <= 1
 0 <= y9_68 <= 1
 0 <= y23_76 <= 1
 0 <= y0_92 <= 1
 0 <= y11_74 <= 1
 0 <= y25_68 <= 1
 0 <= y39_76 <= 1
 0 <= y52_84 <= 1
 0 <= y8_53 <= 1
 0 <= y7_39 <= 1
 0 <= y41_51 <= 1
 0 <= y14_17 <= 1
 0 <= y30_84 <= 1
 0 <= y46_91 <= 1
 0 <= y92_102 <= 1
 0 <= y9_77 <= 1
 0 <= y69_100 <= 1
 0 <= y2_63 <= 1
 0 <= y14_71 <= 1
 0 <= y27_45 <= 1
 0 <= y81_88 <= 1
 0 <= y82_102 <= 1
 0 <= y52_83 <= 1
 0 <= y13_73 <= 1
 0 <= y31_35 <= 1
 0 <= y75_77 <= 1
 0 <= y49_73 <= 1
 0 <= y37_38 <= 1
 0 <= y78_83 <= 1
 0 <= y3_85 <= 1
 0 <= y12_56 <= 1
 0 <= y11_21 <= 1
 0 <= y25_44 <= 1
 0 <= y58_66 <= 1
 0 <= y86_100 <= 1
 0 <= y43_97 <= 1
 0 <= y14_78 <= 1
 0 <= y4_32 <= 1
 0 <= y34_48 <= 1
 0 <= y8_9 <= 1
 0 <= y42_58 <= 1
 0 <= y20_87 <= 1
 0 <= y45_57 <= 1
 0 <= y56_79 <= 1
 0 <= y7_94 <= 1
 0 <= y83_89 <= 1
 0 <= y18_82 <= 1
 0 <= y21_71 <= 1
 0 <= y52_59 <= 1
 0 <= y1_44 <= 1
 0 <= y58_60 <= 1
 0 <= y24_77 <= 1
 0 <= y51_87 <= 1
 0 <= y52_79 <= 1
 0 <= y15_69 <= 1
 0 <= y29_91 <= 1
 0 <= y40_77 <= 1
 0 <= y90_91 <= 1
 0 <= y9_23 <= 1
 0 <= y40_83 <= 1
 0 <= y21_102 <= 1
 0 <= y39_60 <= 1
 0 <= y35_100 <= 1
 0 <= y46_86 <= 1
 0 <= y58_84 <= 1
 0 <= y46_56 <= 1
 0 <= y48_98 <= 1
 0 <= y21_42 <= 1
 0 <= y11_76 <= 1
 0 <= y12_86 <= 1
 0 <= y22_27 <= 1
 0 <= y74_76 <= 1
 0 <= y65_92 <= 1
 0 <= y11_56 <= 1
 0 <= y0_25 <= 1
 0 <= y14_57 <= 1
 0 <= y69_88 <= 1
 0 <= y66_74 <= 1
 0 <= y24_44 <= 1
 0 <= y3_32 <= 1
 0 <= y8_62 <= 1
 0 <= y54_95 <= 1
 0 <= y10_60 <= 1
 0 <= y6_75 <= 1
 0 <= y53_65 <= 1
 0 <= y31_81 <= 1
 0 <= y44_63 <= 1
 0 <= y21_82 <= 1
 0 <= y65_97 <= 1
 0 <= y51_61 <= 1
 0 <= y25_50 <= 1
 0 <= y8_86 <= 1
 0 <= y39_102 <= 1
 0 <= y26_41 <= 1
 0 <= y22_51 <= 1
 0 <= y70_89 <= 1
 0 <= y71_101 <= 1
 0 <= y1_41 <= 1
 0 <= y48_76 <= 1
 0 <= y27_90 <= 1
 0 <= y34_40 <= 1
 0 <= y8_17 <= 1
 0 <= y31_94 <= 1
 0 <= y5_94 <= 1
 0 <= y6_100 <= 1
 0 <= y55_68 <= 1
 0 <= y16_74 <= 1
 0 <= y33_81 <= 1
 0 <= y14_45 <= 1
 0 <= y68_90 <= 1
 0 <= y94_100 <= 1
 0 <= y24_32 <= 1
 0 <= y71_98 <= 1
 0 <= y25_93 <= 1
 0 <= y57_61 <= 1
 0 <= y72_99 <= 1
 0 <= y32_57 <= 1
 0 <= y62_87 <= 1
 0 <= y4_55 <= 1
 0 <= y52_73 <= 1
 0 <= y17_25 <= 1
 0 <= y14_99 <= 1
 0 <= y35_58 <= 1
 0 <= y75_83 <= 1
 0 <= y40_79 <= 1
 0 <= y30_79 <= 1
 0 <= y19_102 <= 1
 0 <= y16_65 <= 1
 0 <= y33_76 <= 1
 0 <= y21_40 <= 1
 0 <= y28_53 <= 1
 0 <= y34_64 <= 1
 0 <= y0_80 <= 1
 0 <= y11_78 <= 1
 0 <= y12_80 <= 1
 0 <= y27_40 <= 1
 0 <= y24_86 <= 1
 0 <= y61_88 <= 1
 0 <= y17_18 <= 1
 0 <= y18_25 <= 1
 0 <= y23_28 <= 1
 0 <= y28_66 <= 1
 0 <= y14_21 <= 1
 0 <= y38_54 <= 1
 0 <= y14_63 <= 1
 0 <= y16_94 <= 1
 0 <= y34_97 <= 1
 0 <= y85_99 <= 1
 0 <= y33_69 <= 1
 0 <= y10_65 <= 1
 0 <= y8_81 <= 1
 0 <= y45_84 <= 1
 0 <= y15_85 <= 1
 0 <= y17_45 <= 1
 0 <= y41_56 <= 1
 0 <= y28_89 <= 1
 0 <= y30_67 <= 1
 0 <= y65_77 <= 1
 0 <= y7_71 <= 1
 0 <= y13_19 <= 1
 0 <= y42_99 <= 1
 0 <= y60_72 <= 1
 0 <= y36_76 <= 1
 0 <= y6_64 <= 1
 0 <= y3_94 <= 1
 0 <= y9_18 <= 1
 0 <= y43_68 <= 1
 0 <= y44_78 <= 1
 0 <= y0_15 <= 1
 0 <= y23_87 <= 1
 0 <= y4_13 <= 1
 0 <= y80_86 <= 1
 0 <= y44_100 <= 1
 0 <= y33_73 <= 1
 0 <= y61_99 <= 1
 0 <= y71_92 <= 1
 0 <= y9_69 <= 1
 0 <= y27_63 <= 1
 0 <= y57_67 <= 1
 0 <= y0_91 <= 1
 0 <= y25_69 <= 1
 0 <= y9_49 <= 1
 0 <= y6_59 <= 1
 0 <= y44_69 <= 1
 0 <= y27_30 <= 1
 0 <= y1_7 <= 1
 0 <= y34_100 <= 1
 0 <= y33_51 <= 1
 0 <= y19_87 <= 1
 0 <= y16_80 <= 1
 0 <= y8_77 <= 1
 0 <= y13_24 <= 1
 0 <= y34_89 <= 1
 0 <= y32_73 <= 1
 0 <= y6_19 <= 1
 0 <= y16_34 <= 1
 0 <= y72_95 <= 1
 0 <= y30_54 <= 1
 0 <= y36_45 <= 1
 0 <= y55_97 <= 1
 0 <= y62_100 <= 1
 0 <= y18_85 <= 1
 0 <= y1_11 <= 1
 0 <= y39_98 <= 1
 0 <= y80_81 <= 1
 0 <= y53_59 <= 1
 0 <= y60_74 <= 1
 0 <= y6_10 <= 1
 0 <= y45_101 <= 1
 0 <= y34_74 <= 1
 0 <= y48_64 <= 1
 0 <= y36_84 <= 1
 0 <= y16_63 <= 1
 0 <= y17_62 <= 1
 0 <= y37_51 <= 1
 0 <= y76_82 <= 1
 0 <= y33_85 <= 1
 0 <= y47_77 <= 1
 0 <= y15_52 <= 1
 0 <= y67_96 <= 1
 0 <= y14_91 <= 1
 0 <= y61_97 <= 1
 0 <= y25_75 <= 1
 0 <= y11_35 <= 1
 0 <= y35_62 <= 1
 0 <= y72_83 <= 1
 0 <= y65_93 <= 1
 0 <= y20_100 <= 1
 0 <= y10_30 <= 1
 0 <= y44_71 <= 1
 0 <= y46_88 <= 1
 0 <= y12_24 <= 1
 0 <= y18_71 <= 1
 0 <= y69_99 <= 1
 0 <= y52_54 <= 1
 0 <= y15_72 <= 1
 0 <= y48_84 <= 1
 0 <= y40_58 <= 1
 0 <= y17_40 <= 1
 0 <= y41_59 <= 1
 0 <= y43_61 <= 1
 0 <= y19_89 <= 1
 0 <= y44_62 <= 1
 0 <= y8_79 <= 1
 0 <= y13_22 <= 1
 0 <= y46_69 <= 1
 0 <= y11_101 <= 1
 0 <= y60_87 <= 1
 0 <= y57_83 <= 1
 0 <= y15_32 <= 1
 0 <= y14_79 <= 1
 0 <= y70_88 <= 1
 0 <= y98_99 <= 1
 0 <= y9_95 <= 1
 0 <= y4_33 <= 1
 0 <= y34_49 <= 1
 0 <= y0_65 <= 1
 0 <= y88_91 <= 1
 0 <= y10_38 <= 1
 0 <= y52_65 <= 1
 0 <= y31_49 <= 1
 0 <= y28_85 <= 1
 0 <= y78_91 <= 1
 0 <= y9_11 <= 1
 0 <= y36_53 <= 1
 0 <= y20_80 <= 1
 0 <= y41_87 <= 1
 0 <= y46_76 <= 1
 0 <= y19_42 <= 1
 0 <= y84_100 <= 1
 0 <= y21_32 <= 1
 0 <= y36_86 <= 1
 0 <= y51_86 <= 1
 0 <= y7_43 <= 1
 0 <= y29_90 <= 1
 0 <= y79_80 <= 1
 0 <= y16_49 <= 1
 0 <= y40_78 <= 1
 0 <= y53_84 <= 1
 0 <= y64_84 <= 1
 0 <= y44_74 <= 1
 0 <= y3_14 <= 1
 0 <= y58_85 <= 1
 0 <= y19_51 <= 1
 0 <= y85_91 <= 1
 0 <= y48_99 <= 1
 0 <= y2_35 <= 1
 0 <= y72_79 <= 1
 0 <= y15_77 <= 1
 0 <= y65_83 <= 1
 0 <= y27_101 <= 1
 0 <= y11_17 <= 1
 0 <= y57_102 <= 1
 0 <= y89_97 <= 1
 0 <= y25_40 <= 1
 0 <= y86_96 <= 1
Binaries
 x0  x1  x2  x3  x4  x5  x6  x7  x8  x9  x10  x11  x12  x13  x14  x15  x16 
 x17  x18  x19  x20  x21  x22  x23  x24  x25  x26  x27  x28  x29  x30  x31 
 x32  x33  x34  x35  x36  x37  x38  x39  x40  x41  x42  x43  x44  x45  x46 
 x47  x48  x49  x50  x51  x52  x53  x54  x55  x56  x57  x58  x59  x60  x61 
 x62  x63  x64  x65  x66  x67  x68  x69  x70  x71  x72  x73  x74  x75  x76 
 x77  x78  x79  x80  x81  x82  x83  x84  x85  x86  x87  x88  x89  x90  x91 
 x92  x93  x94  x95  x96  x97  x98  x99  x100  x101  x102  y35_88  y61_82 
 y82_101  y33_41  y7_55  y14_31  y65_78  y0_17  y13_20  y33_95  y1_54  y60_81 
 y58_65  y21_59  y52_63  y56_58  y12_69  y82_92  y15_83  y32_35  y17_39 
 y63_83  y9_19  y77_95  y47_90  y19_70  y16_97  y87_96  y0_36  y91_101  y23_50 
 y7_15  y39_82  y51_88  y48_90  y43_45  y44_46  y77_88  y42_74  y47_99  y17_84 
 y49_52  y0_5  y32_101  y4_11  y0_59  y3_22  y71_90  y21_55  y24_87  y52_81 
 y12_32  y10_48  y65_81  y5_79  y39_54  y8_76  y58_90  y2_30  y33_68  y10_78 
 y25_46  y57_78  y45_83  y98_100  y25_80  y81_83  y24_68  y30_49  y0_100 
 y38_46  y17_70  y20_85  y16_86  y2_25  y33_93  y59_99  y51_62  y32_79  y3_48 
 y73_89  y13_87  y63_93  y6_65  y90_93  y54_97  y17_81  y28_101  y46_80 
 y85_94  y32_70  y14_90  y71_95  y9_68  y23_76  y0_92  y11_74  y25_68  y39_76 
 y52_84  y8_53  y7_39  y41_51  y14_17  y30_84  y46_91  y92_102  y9_77  y69_100 
 y2_63  y14_71  y27_45  y81_88  y82_102  y52_83  y13_73  y31_35  y75_77 
 y49_73  y37_38  y78_83  y3_85  y12_56  y11_21  y25_44  y58_66  y86_100 
 y43_97  y14_78  y4_32  y34_48  y8_9  y42_58  y20_87  y45_57  y56_79  y7_94 
 y83_89  y18_82  y21_71  y52_59  y1_44  y58_60  y24_77  y51_87  y52_79  y15_69 
 y29_91  y40_77  y90_91  y9_23  y40_83  y21_102  y39_60  y35_100  y46_86 
 y58_84  y46_56  y48_98  y21_42  y11_76  y12_86  y22_27  y74_76  y65_92 
 y11_56  y0_25  y14_57  y69_88  y66_74  y24_44  y3_32  y8_62  y54_95  y10_60 
 y6_75  y53_65  y31_81  y44_63  y21_82  y65_97  y51_61  y25_50  y8_86  y39_102 
 y26_41  y22_51  y70_89  y71_101  y1_41  y48_76  y27_90  y34_40  y8_17  y31_94 
 y5_94  y6_100  y55_68  y16_74  y33_81  y14_45  y68_90  y94_100  y24_32 
 y71_98  y25_93  y57_61  y72_99  y32_57  y62_87  y4_55  y52_73  y17_25  y14_99 
 y35_58  y75_83  y40_79  y30_79  y19_102  y16_65  y33_76  y21_40  y28_53 
 y34_64  y0_80  y11_78  y12_80  y27_40  y24_86  y61_88  y17_18  y18_25  y23_28 
 y28_66  y14_21  y38_54  y14_63  y16_94  y34_97  y85_99  y33_69  y10_65  y8_81 
 y45_84  y15_85  y17_45  y41_56  y28_89  y30_67  y65_77  y7_71  y13_19  y42_99 
 y60_72  y36_76  y6_64  y3_94  y9_18  y43_68  y44_78  y0_15  y23_87  y4_13 
 y80_86  y44_100  y33_73  y61_99  y71_92  y9_69  y27_63  y57_67  y0_91  y25_69 
 y9_49  y6_59  y44_69  y27_30  y1_7  y34_100  y33_51  y19_87  y16_80  y8_77 
 y13_24  y34_89  y32_73  y6_19  y16_34  y72_95  y30_54  y36_45  y55_97 
 y62_100  y18_85  y1_11  y39_98  y80_81  y53_59  y60_74  y6_10  y45_101 
 y34_74  y48_64  y36_84  y16_63  y17_62  y37_51  y76_82  y33_85  y47_77 
 y15_52  y67_96  y14_91  y61_97  y25_75  y11_35  y35_62  y72_83  y65_93 
 y20_100  y10_30  y44_71  y46_88  y12_24  y18_71  y69_99  y52_54  y15_72 
 y48_84  y40_58  y17_40  y41_59  y43_61  y19_89  y44_62  y8_79  y13_22  y46_69 
 y11_101  y60_87  y57_83  y15_32  y14_79  y70_88  y98_99  y9_95  y4_33  y34_49 
 y0_65  y88_91  y10_38  y52_65  y31_49  y28_85  y78_91  y9_11  y36_53  y20_80 
 y41_87  y46_76  y19_42  y84_100  y21_32  y36_86  y51_86  y7_43  y29_90 
 y79_80  y16_49  y40_78  y53_84  y64_84  y44_74  y3_14  y58_85  y19_51  y85_91 
 y48_99  y2_35  y72_79  y15_77  y65_83  y27_101  y11_17  y57_102  y89_97 
 y25_40  y86_96 
End
